c b=2,c=99
p cnf 11 25
1 2 -4 0
2 -5 0
1 2 -9 0
2 -10 0
1 -2 4 0
1 -2 5 0
1 -2 9 0
1 -2 10 0
1 -3 0
1 -6 0
1 -8 0
1 -11 0
-1 2 4 0
2 -6 0
-1 2 9 0
2 -11 0
-1 -2 -4 0
-1 -2 6 0
-1 -2 -9 0
-1 -2 11 0
-1 3 0
-1 -5 0
-1 8 0
-1 -10 0
-7 0
